703
1   1   0    30   0 67 0
1   2   0    140  0 34 46 52 54 13 27 4 0
1   3   0    127  0 6 33 42 64 22 68 75 0
2   1   0    0    0 0
2   2   0    137  0 47 36 71 60 70 20 37 15 57 5 0
2   3   0    137  0 29 45 30 74 61 69 21 48 0
3   1   0    72   0 14 19 8 35 0
3   2   0    137  0 38 10 58 72 39 12 26 7 0
3   3   0    129  0 59 66 65 11 53 0
4   1   0    0    0 0
4   2   0    123  0 3 49 24 18 50 32 44 0
4   3   0    140  0 25 55 31 9 40 17 51 0
5   1   0    97   0 1 73 2 28 62 0
5   2   0    0    0 0
5   3   0    95   0 43 41 56 23 16 63 0